30
2	4	6	7	8	9	12	17	19	20	22	24	26	27	28	29	30	0
1	4	5	8	9	10	11	12	13	15	17	18	19	20	21	23	24	25	26	29	0
5	6	7	8	9	10	12	13	14	15	18	19	20	21	22	23	24	25	27	28	29	0
1	2	5	7	9	11	12	13	14	15	16	19	21	23	26	27	28	30	0
2	3	4	6	7	8	9	11	12	13	14	15	16	19	22	24	25	26	27	29	30	0
1	3	5	7	12	13	15	16	17	18	19	21	22	23	28	29	30	0
1	3	4	5	6	9	10	11	12	15	19	20	22	25	29	30	0
1	2	3	5	11	13	14	16	17	19	20	24	27	29	30	0
1	2	3	4	5	7	11	13	14	15	17	18	20	26	27	29	0
2	3	7	11	12	14	15	17	18	20	22	23	24	25	28	0
2	4	5	7	8	9	10	14	15	18	19	21	22	24	25	27	28	29	0
1	2	3	4	5	6	7	10	14	15	16	18	19	20	21	24	27	28	29	30	0
2	3	4	5	6	8	9	15	16	18	19	20	21	24	26	27	29	30	0
3	4	5	8	9	10	11	12	15	17	18	19	21	26	28	29	0
2	3	4	5	6	7	9	10	11	12	13	14	16	19	20	22	23	24	25	26	29	30	0
4	5	6	8	12	13	15	20	21	22	23	25	26	27	28	29	30	0
1	2	6	8	9	10	14	18	21	24	26	29	30	0
2	3	6	9	10	11	12	13	14	17	19	20	22	24	25	26	29	0
1	2	3	4	5	6	7	8	11	12	13	14	15	18	20	23	24	25	26	29	0
1	2	3	7	8	9	10	12	13	15	16	18	19	24	25	27	28	29	30	0
2	3	4	6	11	12	13	14	16	17	24	25	29	0
1	3	5	6	7	10	11	15	16	18	23	25	26	28	29	30	0
2	3	4	6	10	15	16	19	22	28	29	30	0
1	2	3	5	8	10	11	12	13	15	17	18	19	20	21	27	28	0
2	3	5	7	10	11	15	16	18	19	20	21	22	26	27	30	0
1	2	4	5	9	13	14	15	16	17	18	19	22	25	28	30	0
1	3	4	5	8	9	11	12	13	16	20	24	25	28	30	0
1	3	4	6	10	11	12	14	16	20	22	23	24	26	27	30	0
1	2	3	5	6	7	8	9	11	12	13	14	15	16	17	18	19	20	21	22	23	0
1	4	5	6	7	8	12	13	15	16	17	20	22	23	25	26	27	28	0


comments:
random graph
nodes 30
edges 258
rng seed 426 
